p edge 500 225
e 186 241 1.000000
e 186 247 1.000000
e 241 247 1.000000
e 146 214 1.000000
e 117 146 1.000000
e 117 214 1.000000
e 3 229 1.000000
e 3 210 1.000000
e 210 229 1.000000
e 337 438 1.000000
e 337 365 1.000000
e 365 438 1.000000
e 133 326 1.000000
e 122 133 1.000000
e 122 326 1.000000
e 114 152 1.000000
e 6 114 1.000000
e 6 152 1.000000
e 155 418 1.000000
e 155 172 1.000000
e 172 418 1.000000
e 342 488 1.000000
e 73 342 1.000000
e 73 488 1.000000
e 309 381 1.000000
e 159 381 1.000000
e 159 309 1.000000
e 12 405 1.000000
e 12 113 1.000000
e 113 405 1.000000
e 309 490 1.000000
e 130 490 1.000000
e 130 309 1.000000
e 11 458 1.000000
e 11 79 1.000000
e 79 458 1.000000
e 311 414 1.000000
e 311 342 1.000000
e 342 414 1.000000
e 15 324 1.000000
e 15 238 1.000000
e 238 324 1.000000
e 234 307 1.000000
e 234 321 1.000000
e 307 321 1.000000
e 152 361 1.000000
e 115 361 1.000000
e 115 152 1.000000
e 159 401 1.000000
e 159 186 1.000000
e 186 401 1.000000
e 133 216 1.000000
e 133 404 1.000000
e 216 404 1.000000
e 45 179 1.000000
e 45 254 1.000000
e 179 254 1.000000
e 217 265 1.000000
e 217 330 1.000000
e 265 330 1.000000
e 89 486 1.000000
e 89 289 1.000000
e 289 486 1.000000
e 151 297 1.000000
e 23 151 1.000000
e 23 297 1.000000
e 145 499 1.000000
e 43 145 1.000000
e 43 499 1.000000
e 405 427 1.000000
e 4 427 1.000000
e 4 405 1.000000
e 192 268 1.000000
e 121 268 1.000000
e 121 192 1.000000
e 80 251 1.000000
e 80 159 1.000000
e 159 251 1.000000
e 156 163 1.000000
e 156 236 1.000000
e 163 236 1.000000
e 34 233 1.000000
e 34 85 1.000000
e 85 233 1.000000
e 359 373 1.000000
e 247 359 1.000000
e 247 373 1.000000
e 7 436 1.000000
e 7 228 1.000000
e 228 436 1.000000
e 432 443 1.000000
e 252 432 1.000000
e 252 443 1.000000
e 8 471 1.000000
e 8 431 1.000000
e 431 471 1.000000
e 244 358 1.000000
e 244 408 1.000000
e 358 408 1.000000
e 63 233 1.000000
e 63 427 1.000000
e 233 427 1.000000
e 41 314 1.000000
e 41 256 1.000000
e 256 314 1.000000
e 336 496 1.000000
e 12 336 1.000000
e 12 496 1.000000
e 74 363 1.000000
e 74 119 1.000000
e 119 363 1.000000
e 208 471 1.000000
e 208 460 1.000000
e 460 471 1.000000
e 190 277 1.000000
e 17 190 1.000000
e 17 277 1.000000
e 23 338 1.000000
e 23 333 1.000000
e 333 338 1.000000
e 205 310 1.000000
e 164 205 1.000000
e 164 310 1.000000
e 245 262 1.000000
e 245 343 1.000000
e 262 343 1.000000
e 417 488 1.000000
e 401 488 1.000000
e 401 417 1.000000
e 349 425 1.000000
e 336 349 1.000000
e 336 425 1.000000
e 37 419 1.000000
e 37 117 1.000000
e 117 419 1.000000
e 164 363 1.000000
e 52 164 1.000000
e 52 363 1.000000
e 48 278 1.000000
e 48 63 1.000000
e 63 278 1.000000
e 125 202 1.000000
e 5 125 1.000000
e 5 202 1.000000
e 321 471 1.000000
e 24 321 1.000000
e 24 471 1.000000
e 59 432 1.000000
e 59 378 1.000000
e 378 432 1.000000
e 352 482 1.000000
e 25 352 1.000000
e 25 482 1.000000
e 392 434 1.000000
e 202 434 1.000000
e 202 392 1.000000
e 79 461 1.000000
e 79 327 1.000000
e 327 461 1.000000
e 131 356 1.000000
e 123 356 1.000000
e 123 131 1.000000
e 92 299 1.000000
e 6 92 1.000000
e 6 299 1.000000
e 123 270 1.000000
e 123 126 1.000000
e 126 270 1.000000
e 60 471 1.000000
e 54 471 1.000000
e 54 60 1.000000
e 76 329 1.000000
e 76 138 1.000000
e 138 329 1.000000
e 199 209 1.000000
e 20 199 1.000000
e 20 209 1.000000
e 208 238 1.000000
e 208 453 1.000000
e 238 453 1.000000
e 239 374 1.000000
e 236 374 1.000000
e 236 239 1.000000
e 20 134 1.000000
e 20 31 1.000000
e 31 134 1.000000
e 16 363 1.000000
e 16 102 1.000000
e 102 363 1.000000
e 219 342 1.000000
e 131 219 1.000000
e 131 342 1.000000
e 474 496 1.000000
e 258 474 1.000000
e 258 496 1.000000
e 197 416 1.000000
e 53 197 1.000000
e 53 416 1.000000
e 111 213 1.000000
e 59 111 1.000000
e 59 213 1.000000
e 56 324 1.000000
e 56 146 1.000000
e 146 324 1.000000
e 60 234 1.000000
e 60 223 1.000000
e 223 234 1.000000
e 73 431 1.000000
e 73 205 1.000000
e 205 431 1.000000
e 122 453 1.000000
e 65 122 1.000000
e 65 453 1.000000
e 68 449 1.000000
e 68 207 1.000000
e 207 449 1.000000
e 222 257 1.000000
e 116 222 1.000000
e 116 257 1.000000
e 95 203 1.000000
e 95 186 1.000000
e 186 203 1.000000
e 342 423 1.000000
e 254 342 1.000000
e 254 423 1.000000
